
Gurobi 11.0.2 (win64) logging started Mon Nov 25 18:21:58 2024

Set parameter LogFile to value ".\Experiments\Verification_16_eps0.0001_2\Logs\vit_12_1_6_12_i4_r1_c3.log"
Set parameter TimeLimit to value 43200
Gurobi Optimizer version 11.0.2 build v11.0.2rc0 (win64 - Windows 10.0 (19045.2))

CPU model: Intel(R) Core(TM) i7-10750H CPU @ 2.60GHz, instruction set [SSE2|AVX|AVX2]
Thread count: 6 physical cores, 12 logical processors, using up to 12 threads

Optimize a model with 2223 rows, 4269 columns and 10376 nonzeros
Model fingerprint: 0xa05d865c
Model has 1150 quadratic constraints
Model has 210 general constraints
Variable types: 4119 continuous, 150 integer (150 binary)
Coefficient statistics:
  Matrix range     [8e-04, 2e+02]
  QMatrix range    [1e+00, 1e+00]
  QLMatrix range   [1e+00, 1e+00]
  Objective range  [1e+00, 1e+00]
  Bounds range     [1e-04, 1e+03]
  RHS range        [1e-04, 2e+02]
  QRHS range       [1e-06, 1e-06]
Presolve removed 1615 rows and 2606 columns
Presolve time: 0.03s
Presolved: 4781 rows, 1664 columns, 16239 nonzeros
Presolved model has 928 bilinear constraint(s)
Presolved model has 119 nonlinear constraint(s)

Solving non-convex MINLP

Variable types: 1648 continuous, 16 integer (16 binary)

Root relaxation: objective 8.530878e+01, 2109 iterations, 0.08 seconds (0.11 work units)

    Nodes    |    Current Node    |     Objective Bounds      |     Work
 Expl Unexpl |  Obj  Depth IntInf | Incumbent    BestBd   Gap | It/Node Time

     0     0   85.30878    0  768          -   85.30878      -     -    0s
     0     0   85.30878    0  769          -   85.30878      -     -    0s
     0     0   85.23205    0  743          -   85.23205      -     -    0s
     0     0   85.16222    0  744          -   85.16222      -     -    0s
     0     0   85.16168    0  744          -   85.16168      -     -    0s
     0     0   85.13562    0  742          -   85.13562      -     -    0s
     0     0   85.13562    0  742          -   85.13562      -     -    0s
     0     0   85.12440    0  743          -   85.12440      -     -    0s
     0     0   85.12216    0  742          -   85.12216      -     -    0s
     0     0   85.10257    0  740          -   85.10257      -     -    0s
     0     0   85.09919    0  739          -   85.09919      -     -    0s
     0     0   85.09699    0  740          -   85.09699      -     -    0s
     0     0   85.07757    0  742          -   85.07757      -     -    0s
     0     0   85.07757    0  744          -   85.07757      -     -    0s
     0     0   85.06712    0  743          -   85.06712      -     -    0s
     0     0   85.06712    0  736          -   85.06712      -     -    0s
     0     0   85.06712    0  735          -   85.06712      -     -    0s
     0     0   85.06686    0  741          -   85.06686      -     -    1s
     0     0   85.06686    0  741          -   85.06686      -     -    1s
     0     0   85.06614    0  742          -   85.06614      -     -    1s
     0     0   85.06614    0  741          -   85.06614      -     -    1s
     0     0   85.06614    0  745          -   85.06614      -     -    1s
     0     0   85.06614    0  745          -   85.06614      -     -    1s
     0     0   85.06614    0  745          -   85.06614      -     -    1s
     0     0   83.45796    0  715          -   83.45796      -     -    5s
     0     2   83.43305    0  715          -   83.43305      -     -    5s
   348    78 infeasible   19               -  -11.55294      -  63.6   10s
  2631   114 infeasible   44               -  -15.30421      -  66.1   15s
H 3410   274                     -15.7107203  -15.61304  0.62%  69.8   16s
  3414   277  -15.69764   80    0  -15.71072  -15.61304  0.62%  69.7   21s
  5041   246     cutoff   32       -15.71072  -15.61304  0.62%  76.2   25s
  8298  1161  -15.70381   45  529  -15.71072  -15.70381  0.04%  68.6   30s
 11742  1513     cutoff   48       -15.71072  -15.70508  0.04%  64.1   35s
 14102  1756     cutoff   98       -15.71072  -15.70575  0.03%  64.3   40s
 18195  2282     cutoff   69       -15.71072  -15.70647  0.03%  62.2   46s
 21874  2255     cutoff   56       -15.71072  -15.70730  0.02%  60.6   51s
 24579  2325  -15.71031   72  493  -15.71072  -15.70816  0.02%  59.8   55s
 28621  3671  -15.70961   64  530  -15.71072  -15.70888  0.01%  56.5   60s

Explored 34079 nodes (1756154 simplex iterations) in 63.70 seconds (57.20 work units)
Thread count was 12 (of 12 available processors)

Solution count 1: -15.7107 

Optimal solution found (tolerance 1.00e-04)
Best objective -1.571072032806e+01, best bound -1.570926839666e+01, gap 0.0092%
